30
8
0
11
8
9
33
56
16
0
44
16
16
8
8
0
0
55
40
273
671
38
18
46
94
32
690
15
328
24
87
242
37
115
53
15
59
46
28
42
38
44
29
9
0
318
17
146
37
40
139
13
9
27
100
34
8
106
57
47
58
0
8
280
19
7
11
144
297
0
12
51
11
18
15
0
73
17
17
0
0
65
24
98
108
9
129
316
105
37
0
14
84
18
24
0
41
0
16
15
